#Structural optimisation
ngkpt 3 3 2
kptopt 1
nshiftk 1
shiftk    0.5    0.5    0.5
autoparal 1
#restartxf -1
chkdilatmx 0
##############################################
####                  STRUCTURE
##############################################
 natom 32
 ntypat 3
 typat
 1 2 2
 2 2 2
 2 2 2
 2 2 2
 2 2 2
 2 3 3
 3 3 3
 3 3 3
 3 3 3
 3 3 3
 3 3
 znucl 26 13 7
 xred
    0.8486100000    0.2500000000    0.4937200000
    0.8374700000    0.2500000000   4.9000000000d-04
    0.8464200000    0.7500000000    0.5026100000
    0.8357300000    0.7500000000    0.9998500000
    0.3371500000   6.0000000000d-04    0.5018800000
    0.3358400000   6.4000000000d-04    0.9995900000
    0.3371500000    0.4994000000    0.5018800000
    0.3358400000    0.4993600000    0.9995900000
    0.1624700000    0.2500000000    0.2526700000
    0.1634000000    0.2500000000    0.7480000000
    0.1623100000    0.7500000000    0.2503600000
    0.1621400000    0.7500000000    0.7518100000
    0.6597900000    0.0014900000    0.2506200000
    0.6620700000   7.8000000000d-04    0.7474400000
    0.6597900000    0.4985100000    0.2506200000
    0.6620700000    0.4992200000    0.7474400000
    0.8477800000    0.2500000000    0.1911700000
    0.8537200000    0.2500000000    0.6827200000
    0.8446000000    0.7500000000    0.1910100000
    0.8494700000    0.7500000000    0.6919800000
    0.3470900000   4.2000000000d-04    0.1892700000
    0.3492000000    0.9990800000    0.6909900000
    0.3470900000    0.4995800000    0.1892700000
    0.3492000000    0.5009200000    0.6909900000
    0.1545900000    0.2500000000    0.4427900000
    0.1491600000    0.2500000000    0.9385200000
    0.1540200000    0.7500000000    0.4392500000
    0.1502200000    0.7500000000    0.9411000000
    0.6458700000    0.0061000000    0.4427600000
    0.6519400000   9.9000000000d-04    0.9384200000
    0.6458700000    0.4939000000    0.4427600000
    0.6519400000    0.4990100000    0.9384200000
 acell    1.0    1.0    1.0
 rprim
   11.8243565125    0.0000000000    0.0000000000
    0.0000000000   10.2401802050    0.0000000000
    0.0000000000    0.0000000000   18.9613418591

 pp_dirpath "$ABI_PSPDIR"
 pseudos "Psdj_nc_sr_04_pw_std_psp8/Fe.psp8, Psdj_nc_sr_04_pw_std_psp8/Al.psp8, Psdj_nc_sr_04_pw_std_psp8/N.psp8"
chkprim = 0 # Input cell is not primitive

#Numerical parameters of the calculation : planewave basis set and k point grid
ecut  30 
dilatmx 1.05
pawecutdg 30

# scf parameters
nstep 100  # in general this should be set to its
         # default (30) or higher

# suppress printing of density, wavefunctions, etc except what is
# explicitly requested above in the ndtset section
prtwf 0
prtden 0
prteig 0

#Structural relaxation
#*********************
   geoopt "bfgs"
   optcell 2
   tolvrs 1.0d-15
   tolmxf 5.0d-6
   ntime 100

##############################################################
# This section is used only for regression testing of ABINIT #
##############################################################
#%%<BEGIN TEST_INFO>
#%% [setup]
#%% executable = abinit
#%% [files]
#%% files_to_test =
#%%   tnlo_1.abo, tolnlines=  1, tolabs=  4.192e-06, tolrel=  8.000e-05, fld_options=-medium
#%% [paral_info]
#%% max_nprocs = 2
#%% [extra_info]
#%% authors = J. Zwanziger, M. Veithen, P. Ghosez
#%% keywords =
#%% description = Structural optimisation
#%%<END TEST_INFO>
